db/data/25380246268119230706162826250395522.z3.out
sat
-------------------
576.025372102
